\ This file has been generated by DOcplex
\ ENCODING=ISO-8859-1
\Problem name: Qrandom17742_6.lp

Minimize
 obj: - 70730 x0 - 35365 x1 - 69446 x2 - 34723 x3 - 69832 x4 - 34916 x5 + [
      47160 x0^2 + 47160 x0*x1 + 93712 x0*x2 + 46856 x0*x3 + 93600 x0*x4
      + 46800 x0*x5 + 11790 x1^2 + 46856 x1*x2 + 23428 x1*x3 + 46800 x1*x4
      + 23400 x1*x5 + 47928 x2^2 + 47928 x2*x3 + 93504 x2*x4 + 46752 x2*x5
      + 11982 x3^2 + 46752 x3*x4 + 23376 x3*x5 + 47496 x4^2 + 47496 x4*x5
      + 11874 x5^2 ]/2 + 52524
Subject To

Bounds
 0 <= x0 <= 1
 0 <= x1 <= 1
 0 <= x2 <= 1
 0 <= x3 <= 1
 0 <= x4 <= 1
 0 <= x5 <= 1

Binaries
 x0 x1 x2 x3 x4 x5
End
